NAME : DD55.1743268.tour
COMMENT : Cost = 0_1743268
COMMENT : Found by LKH [Keld Helsgaun] Sun Apr 23 15:14:36 2017
TYPE : TOUR
DIMENSION : 113
TOUR_SECTION
1
10
3
56
58
65
11
23
111
66
8
63
49
104
78
26
81
28
83
7
62
24
25
79
45
100
17
80
21
72
15
70
76
4
59
52
107
46
101
44
99
30
85
113
38
93
39
94
42
97
14
69
35
90
36
91
9
64
13
68
33
88
47
102
22
34
77
89
48
103
37
92
50
105
31
86
112
5
60
16
71
55
2
32
87
43
98
57
12
67
110
54
40
109
27
82
95
53
29
108
84
19
74
20
75
41
96
6
51
106
61
18
73
-1
EOF
